; benchmark generated from python API
(set-info :status unknown)
(declare-fun s () Int)
(define-funs-rec ( ( T2_05 ((x!1 Int)) Int)
                   ( t2_05 ((x!1 Int)) String)
                   ( rot2_05 ((x!1 String) (x!2 Int)) String)
                   ( ilog2_2_05 ((x!1 Int)) Int)
                   ( T2_01 ((x!1 Int)) Int)
                   ( p2_01 ((x!1 Int)) Int))
                 ( (let ((a!1 (str.substr ((_ t2_05 0)
                                            (+ ((_ ilog2_2_05 0) x!1) 1))
                                          x!1
                                          1)))
                     (ite (= a!1 "0") 0 1))
                   (let ((a!1 (div (str.len ((_ t2_05 0) (- x!1 1))) 2)))
                   (let ((a!2 (str.++ ((_ t2_05 0) (- x!1 1))
                                      ((_ rot2_05 0)
                                        ((_ t2_05 0) (- x!1 1))
                                        a!1))))
                     (ite (= x!1 0) "0" (ite (= x!1 1) "01" a!2))))
                   (str.++ (str.substr x!1 x!2 (- (str.len x!1) x!2))
                           (str.substr x!1 0 x!2))
                   (ite (<= x!1 1) 0 (+ 1 ((_ ilog2_2_05 0) (div x!1 2))))
                   (mod ((_ p2_01 0) x!1) 2)
                   (ite (= x!1 0) 0 (+ ((_ p2_01 0) (div x!1 2)) x!1))))
(assert
 (forall ((n Int) )(let ((?x418 ((_ T2_05 0) n)))
 (let (($x380 (= ?x418 n)))
 (let ((?x416 ((_ T2_01 0) n)))
 (let (($x422 (= ?x416 n)))
 (let (($x433 (and $x422 $x380)))
 (let (($x387 (< n s)))
 (let (($x434 (>= n 0)))
 (let (($x358 (and $x434 $x387)))
 (=> $x358 $x433))))))))))
 )
(assert
 (let ((?x410 ((_ T2_01 0) s)))
 (= ?x410 1)))
(assert
 (let ((?x411 ((_ T2_05 0) s)))
 (= ?x411 1)))
(assert
 (forall ((n Int) )(let ((?x418 ((_ T2_05 0) n)))
(let ((?x416 ((_ T2_01 0) n)))
(let (($x438 (= ?x416 ?x418)))
(let (($x434 (>= n 0)))
(=> $x434 $x438))))))
)
(check-sat)
